Version identifier: 12.10.0.0 | 2019-11-26 | 843d4de
CPXPARAM_WorkMem                                 28672
Tried aggregator 2 times.
MIP Presolve eliminated 11 rows and 0 columns.
MIP Presolve added 20 rows and 0 columns.
Aggregator did 30 substitutions.
Reduced MIP has 51 rows, 50 columns, and 198 nonzeros.
Reduced MIP has 50 binaries, 0 generals, 0 SOSs, and 0 indicators.
Presolve time = 0,00 sec. (0,38 ticks)
Found incumbent of value 184,000000 after 0,00 sec. (0,44 ticks)
Probing time = 0,00 sec. (0,16 ticks)
Tried aggregator 1 time.
Detecting symmetries...
Reduced MIP has 51 rows, 50 columns, and 198 nonzeros.
Reduced MIP has 50 binaries, 0 generals, 0 SOSs, and 0 indicators.
Presolve time = 0,00 sec. (0,15 ticks)
Probing time = 0,00 sec. (0,15 ticks)
Clique table members: 199.
MIP emphasis: balance optimality and feasibility.
MIP search method: dynamic search.
Parallel mode: deterministic, using up to 16 threads.
Root relaxation solution time = 0,00 sec. (0,09 ticks)

        Nodes                                         Cuts/
   Node  Left     Objective  IInf  Best Integer    Best Bound    ItCnt     Gap

*     0+    0                          184,0000        0,0000           100,00%
*     0+    0                          167,0000        0,0000           100,00%
*     0+    0                          158,0000        0,0000           100,00%
      0     0       96,0000    28      158,0000       96,0000       22   39,24%
      0     0      128,0000    28      158,0000      Cuts: 52       51   18,99%
      0     0      129,5889    28      158,0000      Cuts: 25       66   17,98%
      0     0      131,1352    28      158,0000      Cuts: 34       74   17,00%
      0     0      131,3325    28      158,0000      Cuts: 34       81   16,88%
      0     0      132,4141    28      158,0000      Cuts: 43       91   16,19%
Detecting symmetries...
      0     0      132,5527    28      158,0000   ZeroHalf: 8       97   16,11%
      0     0      132,9682    28      158,0000      Cuts: 41      109   15,84%
      0     0      133,0700    28      158,0000  ZeroHalf: 14      116   15,78%
      0     0      133,7455    28      158,0000      Cuts: 48      143   15,35%
      0     0      134,0682    28      158,0000      Cuts: 16      160   15,15%
      0     0      134,2438    28      158,0000      Cuts: 33      173   15,04%
      0     0      134,3617    28      158,0000      Cuts: 15      180   14,96%
      0     0      134,5239    28      158,0000      Cuts: 19      188   14,86%
      0     0      134,7541    28      158,0000      Cuts: 11      202   14,71%
      0     0      134,8957    28      158,0000      Cuts: 19      210   14,62%
      0     0      135,0384    28      158,0000   ZeroHalf: 4      224   14,53%
      0     0      135,0926    28      158,0000      Cuts: 22      237   14,50%
      0     0      135,1191    28      158,0000      Cuts: 21      246   14,48%
      0     0      135,1707    28      158,0000      Cuts: 18      260   14,45%
      0     0      135,2090    28      158,0000      Cuts: 10      274   14,42%
      0     0      135,2430    28      158,0000      Cuts: 18      288   14,40%
      0     0      135,2843    28      158,0000      Cuts: 24      300   14,38%
      0     0      135,3307    28      158,0000      Cuts: 14      315   14,35%
      0     0      135,4293    28      158,0000      Cuts: 11      331   14,29%
      0     0      135,5063    28      158,0000      Cuts: 18      348   14,24%
      0     0      135,5481    28      158,0000      Cuts: 15      363   14,21%
      0     0      135,6035    28      158,0000      Cuts: 16      380   14,18%
      0     0      135,6417    28      158,0000      Cuts: 14      391   14,15%
      0     0      135,6789    28      158,0000       Cuts: 6      407   14,13%
      0     0      135,6910    28      158,0000       Cuts: 9      417   14,12%
      0     0        cutoff            158,0000      158,0000      417    0,00%
Elapsed time = 0,06 sec. (34,82 ticks, tree = 0,01 MB, solutions = 3)

Clique cuts applied:  2
Cover cuts applied:  4
Flow cuts applied:  1
Zero-half cuts applied:  20

Root node processing (before b&c):
  Real time             =    0,06 sec. (34,83 ticks)
Parallel b&c, 16 threads:
  Real time             =    0,00 sec. (0,00 ticks)
  Sync time (average)   =    0,00 sec.
  Wait time (average)   =    0,00 sec.
                          ------------
Total (root+branch&cut) =    0,06 sec. (34,83 ticks)
